language ESSENCE' 1.0
$ loaded file: carseqdata/csplib-instance-59
letting numcars=200
letting numclasses=25
letting numoptions=5
letting optMax=[1, 2, 1, 2, 1]
letting windowSize=[2, 3, 3, 5, 5]
letting numberPerClass=[7, 4, 2, 1, 1, 6, 10, 6, 16, 4, 8, 11, 4, 24, 1, 36, 3, 5, 18, 15, 1, 2, 10, 4, 1]
letting optionsRequired=[[1, 0, 0, 0, 1], [1, 0, 1, 1, 0], [1, 1, 1, 0, 0], [1, 1, 1, 1, 0], [0, 1, 1, 1, 1], [1, 0, 0, 1, 0], [0, 0, 1, 1, 0], [1, 0, 1, 0, 0], [0, 0, 0, 1, 0], [0, 1, 0, 0, 1], [0, 1, 1, 0, 0], [0, 1, 0, 1, 0], [0, 0, 0, 1, 1], [1, 0, 0, 0, 0], [0, 1, 0, 1, 1], [0, 1, 0, 0, 0], [0, 1, 1, 1, 0], [1, 1, 0, 1, 0], [0, 0, 1, 0, 0], [1, 1, 0, 0, 0], [1, 0, 1, 0, 1], [0, 1, 1, 0, 1], [0, 0, 0, 0, 1], [1, 1, 0, 0, 1], [1, 0, 0, 0, 1]]
